FILENAME:   ../instances_new/flowersnark/flowersnark9_3.cip
SETTINGS:   settings_final_moresymresack_norelabel
TIMELIMIT:  7200
OUTPUTNAME: final_flowersnark__settings_final_moresymresack_norelabel__4__
BINNAME:    bin/sbcs.linux.x86_64.gnu.opt.cpx
BASENAME:   flowersnark9_3.cip
SEED:       4
@01 ../instances_new/flowersnark/flowersnark9_3.cip ===========
@02 flowersnark9_3.cip
@03 1668053619
SCIP version 8.0.2 [precision: 8 byte] [memory: block] [mode: optimized] [LP solver: CPLEX 20.1.0.0] [GitHash: 5f0473c]
Copyright (C) 2002-2022 Konrad-Zuse-Zentrum fuer Informationstechnik Berlin (ZIB)

Symretope propagation methods - (c) Jasper van Doornmalen, Christopher Hojny.
[GitHash: 8113d1c]

reading parameter file <../settings/settings_final_moresymresack_norelabel.set> ...

Changed settings:
limits/time = 7200
misc/usesymmetry = 1
randomization/randomseedshift = 4
constraints/orbisack/sepafreq = -1
constraints/symresack/sepafreq = -1
propagating/symmetry/addsymresacks = TRUE
propagating/symmetry/detectsubgroups = FALSE
propagating/symmetry/usesymretopes = FALSE
propagating/symmetry/relabelsymretopes = 0
propagating/symmetry/addmoresymresacks = TRUE
propagating/symmetry/ofsymcomptiming = 0
constraints/symretope/sepafreq = -1
constraints/symretope/peek = FALSE


solving problem ...

original problem has 162 variables (162 bin, 0 int, 0 impl, 0 cont) and 162 constraints
presolving:
(round 1, exhaustive) 0 del vars, 0 del conss, 0 add conss, 0 chg bounds, 0 chg sides, 0 chg coeffs, 162 upgd conss, 0 impls, 162 clqs
   (0.0s) probing: 51/162 (31.5%) - 0 fixings, 0 aggregations, 0 implications, 0 bound changes
   (0.0s) probing aborted: 50/50 successive totally useless probings
   (0.0s) symmetry computation started: requiring (bin +, int +, cont +), (fixed: bin -, int -, cont -)
   (0.0s) symmetry computation finished: 5 generators found (max: 1500, log10 of symmetry group size: 2.3)
(round 2, exhaustive) 7 del vars, 0 del conss, 21 add conss, 0 chg bounds, 0 chg sides, 0 chg coeffs, 162 upgd conss, 0 impls, 159 clqs
(round 3, fast)       16 del vars, 7 del conss, 21 add conss, 0 chg bounds, 0 chg sides, 0 chg coeffs, 162 upgd conss, 0 impls, 155 clqs
(round 4, medium)     22 del vars, 7 del conss, 21 add conss, 0 chg bounds, 0 chg sides, 0 chg coeffs, 162 upgd conss, 0 impls, 151 clqs
(round 5, fast)       31 del vars, 15 del conss, 21 add conss, 0 chg bounds, 0 chg sides, 0 chg coeffs, 162 upgd conss, 0 impls, 147 clqs
   (0.0s) probing cycle finished: starting next cycle
(round 6, exhaustive) 37 del vars, 15 del conss, 21 add conss, 0 chg bounds, 0 chg sides, 0 chg coeffs, 162 upgd conss, 0 impls, 259 clqs
(round 7, fast)       37 del vars, 24 del conss, 21 add conss, 0 chg bounds, 0 chg sides, 0 chg coeffs, 162 upgd conss, 0 impls, 259 clqs
   (0.0s) probing cycle finished: starting next cycle
(round 8, exhaustive) 40 del vars, 24 del conss, 21 add conss, 0 chg bounds, 0 chg sides, 0 chg coeffs, 162 upgd conss, 0 impls, 298 clqs
(round 9, fast)       40 del vars, 27 del conss, 21 add conss, 0 chg bounds, 0 chg sides, 0 chg coeffs, 162 upgd conss, 0 impls, 298 clqs
   (0.0s) probing: 66/135 (48.9%) - 0 fixings, 9 aggregations, 173 implications, 0 bound changes
   (0.0s) probing aborted: 50/50 successive totally useless probings
presolving (10 rounds: 10 fast, 6 medium, 5 exhaustive):
 40 deleted vars, 27 deleted constraints, 21 added constraints, 0 tightened bounds, 0 added holes, 0 changed sides, 0 changed coefficients
 0 implications, 298 cliques
presolved problem has 132 variables (132 bin, 0 int, 0 impl, 0 cont) and 156 constraints
    135 constraints of type <setppc>
      3 constraints of type <orbisack>
      2 constraints of type <orbitope>
     16 constraints of type <symresack>
transformed objective value is always integral (scale: 1)
Presolving Time: 0.01

 time | node  | left  |LP iter|LP it/n|mem/heur|mdpt |vars |cons |rows |cuts |sepa|confs|strbr|  dualbound   | primalbound  |  gap   | compl. 
  0.0s|     1 |     0 |    97 |     - |  3057k |   0 | 132 | 193 | 135 |   0 |  0 |  36 |   0 | 0.000000e+00 |      --      |    Inf | unknown
  0.1s|     1 |     0 |   269 |     - |  3447k |   0 | 132 | 395 | 134 |   0 |  1 |  38 |   0 | 0.000000e+00 |      --      |    Inf | unknown
  0.1s|     1 |     0 |   291 |     - |  3650k |   0 | 132 | 395 | 136 |   2 |  2 |  39 |   0 | 0.000000e+00 |      --      |    Inf | unknown
  0.1s|     1 |     0 |   301 |     - |  3879k |   0 | 132 | 395 | 137 |   3 |  3 |  40 |   0 | 0.000000e+00 |      --      |    Inf | unknown
  0.1s|     1 |     0 |   348 |     - |  3894k |   0 | 132 | 396 | 139 |   5 |  4 |  41 |   0 | 0.000000e+00 |      --      |    Inf | unknown
  0.1s|     1 |     0 |   397 |     - |  4238k |   0 | 132 | 397 | 144 |  10 |  5 |  42 |   0 | 0.000000e+00 |      --      |    Inf | unknown
  0.1s|     1 |     0 |   449 |     - |  4386k |   0 | 132 | 398 | 147 |  13 |  6 |  43 |   0 | 0.000000e+00 |      --      |    Inf | unknown
  0.1s|     1 |     0 |   466 |     - |  4496k |   0 | 132 | 398 | 148 |  14 |  7 |  44 |   0 | 0.000000e+00 |      --      |    Inf | unknown
  0.1s|     1 |     0 |   520 |     - |  4848k |   0 | 132 | 399 | 151 |  17 |  8 |  45 |   0 | 0.000000e+00 |      --      |    Inf | unknown
  0.1s|     1 |     0 |   568 |     - |  5144k |   0 | 132 | 401 | 153 |  19 |  9 |  47 |   0 | 0.000000e+00 |      --      |    Inf | unknown
  0.1s|     1 |     0 |   612 |     - |  5161k |   0 | 132 | 401 | 157 |  23 | 10 |  47 |   0 | 0.000000e+00 |      --      |    Inf | unknown
  0.1s|     1 |     0 |   617 |     - |  5179k |   0 | 132 | 402 | 160 |  26 | 11 |  48 |   0 | 0.000000e+00 |      --      |    Inf | unknown
  0.2s|     1 |     2 |   740 |     - |  5206k |   0 | 132 | 398 | 160 |  26 | 11 |  59 |  10 | 0.000000e+00 |      --      |    Inf | unknown
(run 1, node 1) restarting after 5 global fixings of integer variables

(restart) converted 23 cuts from the global cut pool into linear constraints

presolving:
(round 1, fast)       8 del vars, 5 del conss, 0 add conss, 0 chg bounds, 0 chg sides, 6 chg coeffs, 0 upgd conss, 0 impls, 234 clqs
(round 2, medium)     10 del vars, 5 del conss, 0 add conss, 0 chg bounds, 0 chg sides, 6 chg coeffs, 0 upgd conss, 0 impls, 218 clqs
(round 3, fast)       10 del vars, 10 del conss, 0 add conss, 0 chg bounds, 0 chg sides, 11 chg coeffs, 0 upgd conss, 0 impls, 218 clqs
(round 4, exhaustive) 10 del vars, 15 del conss, 0 add conss, 0 chg bounds, 5 chg sides, 11 chg coeffs, 0 upgd conss, 0 impls, 218 clqs
(round 5, exhaustive) 10 del vars, 15 del conss, 0 add conss, 0 chg bounds, 5 chg sides, 11 chg coeffs, 204 upgd conss, 0 impls, 218 clqs
(round 6, exhaustive) 10 del vars, 23 del conss, 4 add conss, 0 chg bounds, 5 chg sides, 11 chg coeffs, 204 upgd conss, 0 impls, 218 clqs
(round 7, exhaustive) 10 del vars, 23 del conss, 4 add conss, 0 chg bounds, 5 chg sides, 13 chg coeffs, 204 upgd conss, 0 impls, 218 clqs
(round 8, exhaustive) 10 del vars, 26 del conss, 4 add conss, 0 chg bounds, 5 chg sides, 35 chg coeffs, 204 upgd conss, 0 impls, 218 clqs
(round 9, exhaustive) 10 del vars, 28 del conss, 5 add conss, 0 chg bounds, 5 chg sides, 35 chg coeffs, 204 upgd conss, 0 impls, 218 clqs
(round 10, exhaustive) 10 del vars, 28 del conss, 5 add conss, 0 chg bounds, 5 chg sides, 105 chg coeffs, 204 upgd conss, 0 impls, 218 clqs
(round 11, exhaustive) 10 del vars, 29 del conss, 5 add conss, 0 chg bounds, 5 chg sides, 106 chg coeffs, 204 upgd conss, 0 impls, 218 clqs
presolving (12 rounds: 12 fast, 10 medium, 9 exhaustive):
 10 deleted vars, 29 deleted constraints, 5 added constraints, 0 tightened bounds, 0 added holes, 5 changed sides, 106 changed coefficients
 0 implications, 218 cliques
presolved problem has 122 variables (122 bin, 0 int, 0 impl, 0 cont) and 397 constraints
     23 constraints of type <knapsack>
    128 constraints of type <setppc>
      3 constraints of type <orbisack>
      2 constraints of type <orbitope>
     16 constraints of type <symresack>
    225 constraints of type <logicor>
transformed objective value is always integral (scale: 1)
Presolving Time: 0.02

 time | node  | left  |LP iter|LP it/n|mem/heur|mdpt |vars |cons |rows |cuts |sepa|confs|strbr|  dualbound   | primalbound  |  gap   | compl. 
  0.2s|     1 |     0 |   860 |     - |  5489k |   0 | 122 | 402 | 149 |   0 |  0 |  64 |  10 | 0.000000e+00 |      --      |    Inf | unknown
  0.2s|     1 |     0 |   881 |     - |  5516k |   0 | 122 | 447 | 149 |   0 |  1 |  65 |  10 |    cutoff    |      --      |   0.00%| unknown
  0.2s|     1 |     0 |   881 |     - |  5516k |   0 | 122 | 447 | 149 |   0 |  1 |  65 |  10 |    cutoff    |      --      |   0.00%| unknown

SCIP Status        : problem is solved [infeasible]
Solving Time (sec) : 0.20
Solving Nodes      : 1 (total of 2 nodes in 2 runs)
Primal Bound       : +1.00000000000000e+20 (0 solutions)
Dual Bound         : +1.00000000000000e+20
Gap                : 0.00 %
SCIP Status        : problem is solved [infeasible]
Total Time         :       0.20
  solving          :       0.20
  presolving       :       0.02 (included in solving)
  reading          :       0.00
  copying          :       0.01 (3 #copies) (minimal 0.00, maximal 0.00, average 0.00)
Original Problem   :
  Problem name     : model
  Variables        : 162 (162 binary, 0 integer, 0 implicit integer, 0 continuous)
  Constraints      : 162 initial, 162 maximal
  Objective        : minimize, 0 non-zeros (abs.min = 1e+20, abs.max = -1e+20)
Presolved Problem  :
  Problem name     : t_model
  Variables        : 122 (122 binary, 0 integer, 0 implicit integer, 0 continuous)
  Constraints      : 397 initial, 447 maximal
  Objective        : minimize, 0 non-zeros (abs.min = 1e+20, abs.max = -1e+20)
  Nonzeros         : 5597 constraint, 559 clique table
Presolvers         :   ExecTime  SetupTime  Calls  FixedVars   AggrVars   ChgTypes  ChgBounds   AddHoles    DelCons    AddCons   ChgSides   ChgCoefs
  boundshift       :       0.00       0.00      0          0          0          0          0          0          0          0          0          0
  convertinttobin  :       0.00       0.00      0          0          0          0          0          0          0          0          0          0
  domcol           :       0.00       0.00      5          0          0          0          0          0          0          0          0          0
  dualagg          :       0.00       0.00      0          0          0          0          0          0          0          0          0          0
  dualcomp         :       0.00       0.00      0          0          0          0          0          0          0          0          0          0
  dualinfer        :       0.00       0.00      0          0          0          0          0          0          0          0          0          0
  dualsparsify     :       0.00       0.00      1          0          0          0          0          0          0          0          0          0
  gateextraction   :       0.00       0.00      9          0          0          0          0          0         10          5          0          0
  implics          :       0.00       0.00     16          0          0          0          0          0          0          0          0          0
  inttobinary      :       0.00       0.00      0          0          0          0          0          0          0          0          0          0
  qpkktref         :       0.00       0.00      0          0          0          0          0          0          0          0          0          0
  redvub           :       0.00       0.00      0          0          0          0          0          0          0          0          0          0
  sparsify         :       0.00       0.00      2          0          0          0          0          0          0          0          0          0
  stuffing         :       0.00       0.00      0          0          0          0          0          0          0          0          0          0
  trivial          :       0.00       0.00     22         15          0          0          0          0          0          0          0          0
  tworowbnd        :       0.00       0.00      0          0          0          0          0          0          0          0          0          0
  dualfix          :       0.00       0.00     22          0          0          0          0          0          0          0          0          0
  genvbounds       :       0.00       0.00      0          0          0          0          0          0          0          0          0          0
  probing          :       0.01       0.00      4          0          9          0          0          0          0          0          0          0
  pseudoobj        :       0.00       0.00      1          0          0          0          0          0          0          0          0          0
  symmetry         :       0.00       0.00      1          2          0          0          0          0          0         21          0          0
  vbounds          :       0.00       0.00      4          0          2          0          0          0          0          0          0          0
  knapsack         :       0.00       0.00     29          0          0          0          0          0          0          0          0          2
  setppc           :       0.00       0.00     46          0         11          0          0          0         34          0          0          0
  linear           :       0.00       0.00      9          0          0          0          0          0          5          0          5          8
  orbisack         :       0.00       0.00      7          0          0          0          0          0          0          0          0          0
  orbitope         :       0.00       0.00     14          1          0          0          0          0          0          0          0          0
  symresack        :       0.00       0.00      7          0          0          0          0          0          0          0          0          0
  logicor          :       0.00       0.00     26          0          0          0          0          0          7          0          0         96
  benders          :       0.00       0.00      0          0          0          0          0          0          0          0          0          0
  components       :       0.00       0.00      2          0          0          0          0          0          0          0          0          0
  root node        :          -          -      -         80          -          -         80          -          -          -          -          -
Constraints        :     Number  MaxNumber  #Separate #Propagate    #EnfoLP    #EnfoRelax  #EnfoPS    #Check   #ResProp    Cutoffs    DomReds       Cuts    Applied      Conss   Children
  benderslp        :          0          0          0          0          1          0          0          9          0          0          0          0          0          0          0
  integral         :          0          0          0          0          1          0          0          9          0          0          0          0          0          0          2
  knapsack         :         23         23          1         83          0          0          0          0          1          0          0          0          0          0          0
  setppc           :        128        128         13       1209          0          0          0          4        327         40          0          0          0          0          0
  linear           :          0+        44         11        176          0          0          0          0         11          0          0          3          3          0          0
  orbisack         :          3          3          0          0          0          0          0          0          0          0          0          0          0          0          0
  orbitope         :          2          2          0       1069          0          0          0          0          0          0          0          0          0          0          0
  symresack        :         16         16          0         74          0          0          0          0          1          3          0          0          0          0          0
  logicor          :        225+       231         13        206          0          0          0          0          6          1          0          2          0          0          0
  benders          :          0          0          0          0          0          0          0          0          0          0          0          0          0          0          0
  countsols        :          0          0          0          0          0          0          0          0          0          0          0          0          0          0          0
  components       :          0          0          0          0          0          0          0          0          0          0          0          0          0          0          0
Constraint Timings :  TotalTime  SetupTime   Separate  Propagate     EnfoLP     EnfoPS     EnfoRelax   Check    ResProp    SB-Prop
  benderslp        :       0.00       0.00       0.00       0.00       0.00       0.00       0.00       0.00       0.00       0.00
  integral         :       0.02       0.00       0.00       0.00       0.02       0.00       0.00       0.00       0.00       0.00
  knapsack         :       0.00       0.00       0.00       0.00       0.00       0.00       0.00       0.00       0.00       0.00
  setppc           :       0.00       0.00       0.00       0.00       0.00       0.00       0.00       0.00       0.00       0.00
  linear           :       0.00       0.00       0.00       0.00       0.00       0.00       0.00       0.00       0.00       0.00
  orbisack         :       0.00       0.00       0.00       0.00       0.00       0.00       0.00       0.00       0.00       0.00
  orbitope         :       0.00       0.00       0.00       0.00       0.00       0.00       0.00       0.00       0.00       0.00
  symresack        :       0.00       0.00       0.00       0.00       0.00       0.00       0.00       0.00       0.00       0.00
  logicor          :       0.00       0.00       0.00       0.00       0.00       0.00       0.00       0.00       0.00       0.00
  benders          :       0.00       0.00       0.00       0.00       0.00       0.00       0.00       0.00       0.00       0.00
  countsols        :       0.00       0.00       0.00       0.00       0.00       0.00       0.00       0.00       0.00       0.00
  components       :       0.00       0.00       0.00       0.00       0.00       0.00       0.00       0.00       0.00       0.00
Propagators        : #Propagate   #ResProp    Cutoffs    DomReds
  dualfix          :          3          0          0          0
  genvbounds       :          0          0          0          0
  nlobbt           :          0          0          0          0
  obbt             :          0          0          0          0
  probing          :          0          0          0          0
  pseudoobj        :          0          0          0          0
  redcost          :          0          0          0          0
  rootredcost      :          0          0          0          0
  symmetry         :          0          0          0          0
  vbounds          :        309          0          0          0
Propagator Timings :  TotalTime  SetupTime   Presolve  Propagate    ResProp    SB-Prop
  dualfix          :       0.00       0.00       0.00       0.00       0.00       0.00
  genvbounds       :       0.00       0.00       0.00       0.00       0.00       0.00
  nlobbt           :       0.00       0.00       0.00       0.00       0.00       0.00
  obbt             :       0.00       0.00       0.00       0.00       0.00       0.00
  probing          :       0.01       0.00       0.01       0.00       0.00       0.00
  pseudoobj        :       0.00       0.00       0.00       0.00       0.00       0.00
  redcost          :       0.00       0.00       0.00       0.00       0.00       0.00
  rootredcost      :       0.00       0.00       0.00       0.00       0.00       0.00
  symmetry         :       0.00       0.00       0.00       0.00       0.00       0.00
  vbounds          :       0.00       0.00       0.00       0.00       0.00       0.00
Orbital fixing     :
  vars fixed to 0  :          0
  vars fixed to 1  :          0
Conflict Analysis  :       Time      Calls    Success    DomReds  Conflicts   Literals    Reconvs ReconvLits   Dualrays   Nonzeros   LP Iters   (pool size: [10000,10000])
  propagation      :       0.00         39         39          -         62        6.0          5        3.4          -          -          -
  infeasible LP    :       0.00          1          1          -          3        6.3          0        0.0          1       11.0          0
  bound exceed. LP :       0.00          0          0          -          0        0.0          0        0.0          0        0.0          0
  strong branching :       0.00          0          0          -          0        0.0          0        0.0          -          -          0
  pseudo solution  :       0.00          0          0          -          0        0.0          0        0.0          -          -          -
  applied globally :       0.00          -          -          0         64        4.8          -          -          1          -          -
  applied locally  :          -          -          -          0          0        0.0          -          -          0          -          -
Separators         :   ExecTime  SetupTime      Calls  RootCalls    Cutoffs    DomReds  FoundCuts ViaPoolAdd  DirectAdd    Applied ViaPoolApp  DirectApp      Conss
  cut pool         :       0.00          -         21         21          -          -        627        344          -          -          -          -          -    (maximal pool size:        574)
  aggregation      :       0.01       0.00         12         12          0          0          0          0          0          0          0          0          0
  > cmir           :          -          -          -          -          -          -          -          0          0          0          0          0          -
  > flowcover      :          -          -          -          -          -          -          -          0          0          0          0          0          -
  > knapsackcover  :          -          -          -          -          -          -          -          0          0          0          0          0          -
  cgmip            :       0.00       0.00          0          0          0          0          0          0          0          0          0          0          0
  clique           :       0.00       0.00         12         12          0          0          0          0          0          0          0          0          0
  closecuts        :       0.00       0.00          0          0          0          0          0          0          0          0          0          0          0
  convexproj       :       0.00       0.00          0          0          0          0          0          0          0          0          0          0          0
  disjunctive      :       0.00       0.00          0          0          0          0          0          0          0          0          0          0          0
  eccuts           :       0.00       0.00          0          0          0          0          0          0          0          0          0          0          0
  gauge            :       0.00       0.00          0          0          0          0          0          0          0          0          0          0          0
  gomory           :       0.04       0.00         11         11          0          0        609        329          0         11         11          0          0
  > gomorymi       :          -          -          -          -          -          -          -         55          0          0          0          0          -
  > strongcg       :          -          -          -          -          -          -          -        274          0         11         11          0          -
  impliedbounds    :       0.00       0.00         12         12          0          0          0          0          0          0          0          0          0
  interminor       :       0.00       0.00          0          0          0          0          0          0          0          0          0          0          0
  intobj           :       0.00       0.00          0          0          0          0          0          0          0          0          0          0          0
  mcf              :       0.00       0.00          2          2          0          0          0          0          0          0          0          0          0
  minor            :       0.00       0.00          0          0          0          0          0          0          0          0          0          0          0
  mixing           :       0.00       0.00          0          0          0          0          0          0          0          0          0          0          0
  oddcycle         :       0.00       0.00          0          0          0          0          0          0          0          0          0          0          0
  rapidlearning    :       0.08       0.00          2          2          0         80          0          0          0          0          0          0        244
  rlt              :       0.00       0.00         11         11          0          0          0          0          0          0          0          0          0
  zerohalf         :       0.00       0.00         12         12          0          0         18         15          0         12         12          0          0
Cutselectors       :   ExecTime  SetupTime      Calls  RootCalls   Selected     Forced   Filtered  RootSelec   RootForc   RootFilt 
  hybrid           :       0.00       0.00         10         10         26          0        321         26          0        321
Pricers            :   ExecTime  SetupTime      Calls       Vars
  problem variables:       0.00          -          0          0
Branching Rules    :   ExecTime  SetupTime   BranchLP  BranchExt   BranchPS    Cutoffs    DomReds       Cuts      Conss   Children
  allfullstrong    :       0.00       0.00          0          0          0          0          0          0          0          0
  cloud            :       0.00       0.00          0          0          0          0          0          0          0          0
  distribution     :       0.00       0.00          0          0          0          0          0          0          0          0
  fullstrong       :       0.00       0.00          0          0          0          0          0          0          0          0
  inference        :       0.00       0.00          0          0          0          0          0          0          0          0
  leastinf         :       0.00       0.00          0          0          0          0          0          0          0          0
  lookahead        :       0.00       0.00          0          0          0          0          0          0          0          0
  mostinf          :       0.00       0.00          0          0          0          0          0          0          0          0
  multaggr         :       0.00       0.00          0          0          0          0          0          0          0          0
  nodereopt        :       0.00       0.00          0          0          0          0          0          0          0          0
  pscost           :       0.00       0.00          0          0          0          0          0          0          0          0
  random           :       0.00       0.00          0          0          0          0          0          0          0          0
  relpscost        :       0.02       0.00          1          0          0          0          0          0          0          2
  vanillafullstrong:       0.00       0.00          0          0          0          0          0          0          0          0
Primal Heuristics  :   ExecTime  SetupTime      Calls      Found       Best
  LP solutions     :       0.00          -          -          0          0
  relax solutions  :       0.00          -          -          0          0
  pseudo solutions :       0.00          -          -          0          0
  strong branching :       0.00          -          -          0          0
  actconsdiving    :       0.00       0.00          0          0          0
  adaptivediving   :       0.00       0.00          0          0          0
  alns             :       0.00       0.00          1          0          0
  bound            :       0.00       0.00          0          0          0
  clique           :       0.00       0.00          1          0          0
  coefdiving       :       0.00       0.00          0          0          0
  completesol      :       0.00       0.00          0          0          0
  conflictdiving   :       0.00       0.00          1          0          0
  crossover        :       0.00       0.00          0          0          0
  dins             :       0.00       0.00          0          0          0
  distributiondivin:       0.00       0.00          0          0          0
  dps              :       0.00       0.00          0          0          0
  dualval          :       0.00       0.00          0          0          0
  farkasdiving     :       0.00       0.00          0          0          0
  feaspump         :       0.00       0.00          1          0          0
  fixandinfer      :       0.00       0.00          0          0          0
  fracdiving       :       0.00       0.00          0          0          0
  gins             :       0.00       0.00          0          0          0
  guideddiving     :       0.00       0.00          0          0          0
  indicator        :       0.00       0.00          0          0          0
  intdiving        :       0.00       0.00          0          0          0
  intshifting      :       0.00       0.00          0          0          0
  linesearchdiving :       0.00       0.00          0          0          0
  localbranching   :       0.00       0.00          0          0          0
  locks            :       0.00       0.00          1          0          0
  lpface           :       0.00       0.00          0          0          0
  mpec             :       0.00       0.00          0          0          0
  multistart       :       0.00       0.00          0          0          0
  mutation         :       0.00       0.00          0          0          0
  nlpdiving        :       0.00       0.00          0          0          0
  objpscostdiving  :       0.00       0.00          0          0          0
  octane           :       0.00       0.00          0          0          0
  ofins            :       0.00       0.00          0          0          0
  oneopt           :       0.00       0.00          0          0          0
  padm             :       0.00       0.00          0          0          0
  proximity        :       0.00       0.00          0          0          0
  pscostdiving     :       0.00       0.00          0          0          0
  randrounding     :       0.01       0.00         13          0          0
  rens             :       0.00       0.00          0          0          0
  reoptsols        :       0.00       0.00          0          0          0
  repair           :       0.00       0.00          0          0          0
  rins             :       0.00       0.00          0          0          0
  rootsoldiving    :       0.00       0.00          0          0          0
  rounding         :       0.00       0.00         13          0          0
  shiftandpropagate:       0.00       0.00          2          0          0
  shifting         :       0.00       0.00         13          0          0
  simplerounding   :       0.00       0.00          0          0          0
  subnlp           :       0.00       0.00          0          0          0
  trivial          :       0.00       0.00          2          0          0
  trivialnegation  :       0.00       0.00          0          0          0
  trustregion      :       0.00       0.00          0          0          0
  trysol           :       0.00       0.00          0          0          0
  twoopt           :       0.00       0.00          0          0          0
  undercover       :       0.00       0.00          0          0          0
  vbounds          :       0.00       0.00          2          0          0
  veclendiving     :       0.00       0.00          0          0          0
  zeroobj          :       0.00       0.00          0          0          0
  zirounding       :       0.00       0.00          1          0          0
  other solutions  :          -          -          -          0          -
LP                 :       Time      Calls Iterations  Iter/call   Iter/sec  Time-0-It Calls-0-It    ItLimit
  primal LP        :       0.00          1          0       0.00          -       0.00          1
  dual LP          :       0.01         14        633      45.21   55864.44       0.00          0
  lex dual LP      :       0.00          0          0       0.00          -
  barrier LP       :       0.00          0          0       0.00          -       0.00          0
  resolve instable :       0.00          0          0       0.00          -
  diving/probing LP:       0.01         13        248      19.08          -
  strong branching :       0.02         10        877      87.70   50676.07          -          -          0
    (at root node) :          -         10        877      87.70          -
  conflict analysis:       0.00          0          0       0.00          -
B&B Tree           :
  number of runs   :          2
  nodes            :          1 (0 internal, 1 leaves)
  feasible leaves  :          0
  infeas. leaves   :          1
  objective leaves :          0
  nodes (total)    :          2 (1 internal, 1 leaves)
  nodes left       :          0
  max depth        :          0
  max depth (total):          0
  backtracks       :          0 (0.0%)
  early backtracks :          0 (0.0%)
  nodes exc. ref.  :          0 (0.0%)
  delayed cutoffs  :          0
  repropagations   :          0 (0 domain reductions, 0 cutoffs)
  avg switch length:       2.00
  switching time   :       0.00
Root Node          :
  First LP value   : +0.00000000000000e+00
  First LP Iters   :         97 (59182.43 Iter/sec)
  First LP Time    :       0.00
  Final Dual Bound :          -
  Final Root Iters :        758
  Root LP Estimate :                     -
Solution           :
  Solutions found  :          0 (0 improvements)
  Primal Bound     : infeasible
  Dual Bound       :          -
  Gap              :       0.00 %
Integrals          :      Total       Avg%
  primal-dual      :          -          - (problem infeasible)
  primal-ref       :          -          - (problem infeasible)
  dual-ref         :          -          - (problem infeasible)
written solution information to file <results/final_flowersnark__settings_final_moresymresack_norelabel__4__flowersnark9_3.cip.sol>
@04 1668053619
